jobs  (incl. supersource/sink ):	102
RESOURCES
- renewable                 : 4 R
- nonrenewable              : 4 N
- doubly constrained        : 0 D
************************************************************************
PRECEDENCE RELATIONS:
jobnr.    #modes  #successors   successors
1	1	28		2 3 4 5 6 7 8 9 10 11 12 13 14 15 17 19 20 21 22 23 24 25 26 29 30 32 33 41 
2	6	12		93 58 54 45 43 38 37 35 34 27 18 16 
3	6	27		101 100 99 96 95 94 91 89 88 87 68 67 66 64 61 59 56 55 53 52 50 49 46 45 44 43 27 
4	6	9		93 65 56 48 43 37 34 27 16 
5	6	18		99 98 96 94 92 88 67 65 62 53 52 51 49 47 44 39 38 34 
6	6	19		100 99 97 96 94 66 64 63 62 60 58 55 53 52 48 47 44 36 28 
7	6	14		101 100 96 95 94 66 62 55 53 44 43 38 28 27 
8	6	22		101 99 97 96 94 93 92 91 84 83 77 67 64 62 61 58 55 53 49 48 40 36 
9	6	17		100 99 94 93 92 88 82 76 62 59 57 56 55 52 49 46 37 
10	6	19		100 99 97 94 90 89 88 87 81 67 66 65 62 61 60 53 52 40 27 
11	6	19		100 98 97 94 93 91 90 89 85 82 77 66 64 63 61 59 57 42 35 
12	6	16		100 94 91 90 89 88 87 84 64 61 57 56 55 53 44 31 
13	6	18		101 99 98 97 96 93 90 87 86 81 67 66 64 63 60 50 44 37 
14	6	19		101 100 98 95 92 88 87 86 84 83 81 76 65 63 62 60 54 40 37 
15	6	19		101 95 94 92 90 89 88 87 84 81 77 75 64 61 59 58 53 50 44 
16	6	18		101 98 97 96 94 91 88 84 80 77 75 73 66 64 61 53 49 44 
17	6	18		101 98 96 93 88 87 82 78 77 76 74 65 63 62 61 57 52 49 
18	6	16		99 95 88 84 77 76 67 66 65 64 62 61 57 53 49 40 
19	6	19		97 96 93 91 88 87 84 82 79 78 77 76 67 64 63 62 57 53 49 
20	6	16		97 96 95 94 91 89 88 87 84 64 62 61 60 53 46 44 
21	6	16		101 98 97 96 95 93 88 87 84 81 77 64 61 56 55 36 
22	6	17		99 92 91 90 89 88 87 82 81 79 76 75 74 63 60 57 53 
23	6	14		95 93 86 84 81 79 78 76 73 70 65 62 53 51 
24	6	13		93 92 89 87 85 83 79 78 76 66 62 60 46 
25	6	18		97 96 93 92 91 89 88 87 83 81 80 79 77 75 73 71 69 64 
26	6	16		90 89 88 87 86 84 82 81 80 75 73 72 71 62 61 60 
27	6	11		98 85 83 82 79 78 76 72 69 63 47 
28	6	18		93 91 90 88 87 86 84 81 80 79 78 77 76 75 72 71 70 69 
29	6	15		86 85 84 83 81 80 78 76 74 73 72 71 69 61 60 
30	6	15		90 87 86 84 83 82 78 77 75 73 72 70 69 68 64 
31	6	14		99 97 83 82 81 77 76 75 74 73 71 69 66 58 
32	6	13		98 94 92 89 83 78 72 71 70 64 63 62 61 
33	6	15		92 91 88 87 85 83 80 79 77 76 75 74 73 72 66 
34	6	7		100 87 83 82 76 60 46 
35	6	8		95 88 84 79 78 75 72 50 
36	6	11		89 85 78 76 75 74 73 72 71 69 57 
37	6	8		91 89 80 78 77 73 61 53 
38	6	10		89 84 80 77 76 74 72 71 70 61 
39	6	10		91 90 82 77 75 74 72 71 70 63 
40	6	10		85 82 78 75 74 73 72 71 70 69 
41	6	8		82 81 78 76 75 74 69 57 
42	6	8		81 80 78 75 73 69 67 60 
43	6	7		92 81 77 72 69 63 60 
44	6	8		83 82 78 76 74 72 70 69 
45	6	8		92 82 80 79 75 74 71 69 
46	6	7		77 75 74 72 71 69 63 
47	6	6		84 77 75 74 73 57 
48	6	6		95 86 78 76 70 69 
49	6	5		90 86 81 72 60 
50	6	5		83 76 74 71 62 
51	6	5		87 77 75 69 64 
52	6	5		86 84 83 75 71 
53	6	4		85 72 71 69 
54	6	4		79 75 73 69 
55	6	3		72 70 65 
56	6	3		78 75 73 
57	6	2		80 70 
58	6	2		86 80 
59	6	2		73 72 
60	6	1		70 
61	6	1		79 
62	6	1		69 
63	6	1		73 
64	6	1		74 
65	6	1		71 
66	6	1		70 
67	6	1		70 
68	6	1		71 
69	6	1		102 
70	6	1		102 
71	6	1		102 
72	6	1		102 
73	6	1		102 
74	6	1		102 
75	6	1		102 
76	6	1		102 
77	6	1		102 
78	6	1		102 
79	6	1		102 
80	6	1		102 
81	6	1		102 
82	6	1		102 
83	6	1		102 
84	6	1		102 
85	6	1		102 
86	6	1		102 
87	6	1		102 
88	6	1		102 
89	6	1		102 
90	6	1		102 
91	6	1		102 
92	6	1		102 
93	6	1		102 
94	6	1		102 
95	6	1		102 
96	6	1		102 
97	6	1		102 
98	6	1		102 
99	6	1		102 
100	6	1		102 
101	6	1		102 
102	1	0		
************************************************************************
REQUESTS/DURATIONS
jobnr.	mode	dur	R1	R2	R3	R4	N1	N2	N3	N4	
------------------------------------------------------------------------
1	1	0	0	0	0	0	0	0	0	0	
2	1	3	4	3	4	3	23	23	19	25	
	2	4	3	3	4	3	22	22	17	18	
	3	5	3	2	4	2	22	20	17	15	
	4	17	3	2	4	2	19	17	13	11	
	5	18	3	1	4	1	19	15	11	10	
	6	28	3	1	4	1	18	15	8	3	
3	1	3	1	3	4	5	10	17	10	27	
	2	16	1	3	4	4	10	13	10	26	
	3	22	1	3	4	3	6	11	10	26	
	4	23	1	3	4	3	4	7	10	25	
	5	27	1	3	4	2	4	7	10	23	
	6	30	1	3	4	2	2	3	10	23	
4	1	19	5	3	5	2	23	30	25	10	
	2	20	4	2	5	2	20	28	22	10	
	3	23	4	2	5	2	16	27	19	9	
	4	24	3	1	5	2	12	27	18	8	
	5	29	3	1	5	2	7	26	12	7	
	6	30	3	1	5	2	4	24	12	6	
5	1	12	4	2	5	1	26	13	24	12	
	2	13	4	2	4	1	25	12	22	11	
	3	18	4	2	3	1	24	12	18	11	
	4	19	4	2	3	1	24	11	16	11	
	5	22	4	2	2	1	23	11	14	11	
	6	29	4	2	1	1	22	11	10	11	
6	1	10	2	5	4	5	9	23	30	30	
	2	13	1	5	4	4	9	22	27	25	
	3	19	1	5	4	3	6	19	26	25	
	4	20	1	5	3	2	5	15	25	20	
	5	29	1	5	3	1	3	12	21	19	
	6	30	1	5	2	1	2	8	20	18	
7	1	5	4	4	1	4	13	11	19	24	
	2	7	4	3	1	4	10	11	18	24	
	3	8	4	3	1	4	10	11	17	22	
	4	18	4	3	1	4	7	11	16	21	
	5	19	4	3	1	4	6	11	15	20	
	6	27	4	3	1	4	5	11	14	19	
8	1	2	4	5	3	3	13	17	15	22	
	2	3	3	3	3	3	10	14	13	19	
	3	7	2	3	3	3	9	11	12	18	
	4	17	2	2	3	3	6	8	9	14	
	5	26	2	2	3	3	5	6	5	12	
	6	27	1	1	3	3	2	5	3	10	
9	1	2	5	2	3	3	29	17	17	10	
	2	3	3	2	3	3	21	15	16	10	
	3	4	3	2	3	3	20	11	14	10	
	4	9	3	2	2	2	13	11	13	10	
	5	14	2	1	2	2	9	9	12	10	
	6	15	1	1	1	2	9	7	12	10	
10	1	1	2	1	3	5	12	5	27	21	
	2	5	2	1	2	4	9	4	25	19	
	3	14	2	1	2	3	9	3	25	18	
	4	20	2	1	2	3	7	3	25	18	
	5	26	1	1	1	2	5	2	23	17	
	6	28	1	1	1	2	3	1	23	16	
11	1	3	5	4	5	3	15	23	6	19	
	2	5	5	4	4	2	15	21	5	16	
	3	9	5	3	4	2	14	19	5	11	
	4	10	5	3	3	2	14	16	5	10	
	5	11	5	3	3	2	13	13	4	8	
	6	23	5	2	3	2	13	11	4	6	
12	1	1	3	5	1	4	16	5	26	12	
	2	2	3	4	1	4	16	5	25	11	
	3	3	3	3	1	4	12	5	24	11	
	4	8	3	3	1	4	11	5	23	9	
	5	20	3	2	1	4	8	5	22	8	
	6	27	3	2	1	4	6	5	21	7	
13	1	5	3	5	3	4	21	14	28	15	
	2	9	2	4	3	4	20	13	24	12	
	3	17	2	4	3	4	15	13	24	11	
	4	18	2	4	2	3	10	12	21	10	
	5	19	2	4	1	3	5	10	21	7	
	6	29	2	4	1	3	4	10	19	7	
14	1	1	4	4	4	4	22	15	15	14	
	2	4	4	3	4	3	20	14	15	13	
	3	7	4	3	4	3	15	13	14	9	
	4	18	4	2	4	2	14	12	12	9	
	5	25	4	2	4	1	9	12	12	5	
	6	26	4	2	4	1	7	11	10	3	
15	1	1	3	4	3	5	26	14	24	12	
	2	6	3	4	3	4	24	11	24	11	
	3	7	2	3	2	4	22	11	23	10	
	4	10	2	3	2	3	21	9	20	9	
	5	29	1	2	1	3	19	7	19	6	
	6	30	1	2	1	2	16	5	18	4	
16	1	3	4	4	5	3	13	9	22	21	
	2	22	4	3	4	2	10	8	22	21	
	3	26	3	3	3	2	8	8	19	21	
	4	27	2	3	2	2	6	8	16	21	
	5	28	1	3	2	1	5	8	16	21	
	6	29	1	3	1	1	2	8	13	21	
17	1	3	4	1	2	3	10	24	4	18	
	2	14	3	1	2	2	9	20	4	17	
	3	15	3	1	2	2	8	16	3	14	
	4	21	3	1	1	2	8	15	3	11	
	5	24	2	1	1	2	8	11	2	6	
	6	27	2	1	1	2	7	9	2	5	
18	1	7	5	2	2	5	26	20	3	29	
	2	10	4	1	1	3	24	19	3	28	
	3	12	3	1	1	3	23	18	3	28	
	4	15	3	1	1	2	21	16	3	28	
	5	17	3	1	1	2	20	13	2	26	
	6	24	2	1	1	1	19	10	2	26	
19	1	9	1	4	1	5	29	22	9	25	
	2	10	1	4	1	4	28	21	7	21	
	3	12	1	4	1	4	26	20	7	19	
	4	13	1	4	1	3	24	20	5	19	
	5	19	1	3	1	3	22	19	4	16	
	6	25	1	3	1	2	22	19	4	14	
20	1	2	4	3	4	1	9	26	24	25	
	2	8	3	2	3	1	7	24	19	22	
	3	9	2	2	3	1	7	19	19	18	
	4	15	2	2	3	1	5	12	14	17	
	5	18	1	2	3	1	4	9	9	15	
	6	24	1	2	3	1	3	7	4	13	
21	1	1	2	5	2	5	1	26	29	27	
	2	11	2	4	2	4	1	23	24	24	
	3	12	2	4	2	4	1	19	20	19	
	4	15	1	3	2	3	1	19	12	17	
	5	16	1	3	2	2	1	16	10	13	
	6	28	1	2	2	2	1	11	4	10	
22	1	3	5	3	3	2	26	18	14	21	
	2	16	4	3	2	2	23	17	11	20	
	3	21	4	3	2	2	20	15	9	20	
	4	23	4	3	1	2	19	14	7	19	
	5	24	4	3	1	2	15	14	4	19	
	6	28	4	3	1	2	15	13	4	19	
23	1	1	5	5	3	1	24	23	14	17	
	2	7	4	4	2	1	22	21	13	16	
	3	9	4	4	2	1	22	17	11	16	
	4	15	4	4	1	1	22	15	10	16	
	5	24	3	4	1	1	20	14	7	16	
	6	29	3	4	1	1	20	11	6	16	
24	1	3	1	4	4	5	15	18	15	16	
	2	7	1	4	3	5	13	17	11	16	
	3	14	1	4	3	5	12	15	8	14	
	4	22	1	4	2	5	9	12	8	13	
	5	27	1	4	2	5	5	7	6	12	
	6	30	1	4	2	5	3	7	1	12	
25	1	3	4	5	5	4	11	8	14	7	
	2	5	3	4	4	3	10	8	13	7	
	3	12	3	3	3	3	10	8	11	7	
	4	20	3	3	3	3	9	8	11	7	
	5	21	3	1	3	2	9	8	9	7	
	6	23	3	1	2	2	8	8	8	7	
26	1	7	5	1	4	5	30	21	30	17	
	2	15	4	1	4	4	24	21	23	17	
	3	19	3	1	3	4	23	16	22	16	
	4	23	3	1	2	4	20	12	14	15	
	5	26	2	1	1	4	16	8	12	15	
	6	28	2	1	1	4	14	2	7	14	
27	1	5	4	4	4	4	22	4	29	13	
	2	11	3	4	3	3	22	3	26	12	
	3	13	3	4	3	3	22	3	23	12	
	4	20	3	4	2	3	22	3	21	11	
	5	22	3	4	2	3	21	3	19	9	
	6	29	3	4	2	3	21	3	17	9	
28	1	9	3	2	5	1	23	8	23	22	
	2	18	3	2	5	1	21	7	22	19	
	3	23	3	2	5	1	21	5	22	18	
	4	24	3	2	5	1	20	4	22	14	
	5	25	3	2	5	1	20	4	21	10	
	6	28	3	2	5	1	19	3	21	6	
29	1	2	4	3	3	4	25	26	18	26	
	2	4	4	3	3	4	25	23	16	25	
	3	7	4	3	3	4	23	21	12	23	
	4	18	4	3	3	4	23	17	10	22	
	5	23	4	3	3	4	21	17	8	18	
	6	29	4	3	3	4	20	14	7	18	
30	1	6	2	4	3	5	28	25	12	22	
	2	12	2	3	3	4	27	25	9	21	
	3	21	2	2	2	3	25	25	8	17	
	4	23	1	2	2	3	24	25	6	10	
	5	24	1	2	1	2	23	25	6	9	
	6	28	1	1	1	1	22	25	5	2	
31	1	3	2	4	4	3	26	8	21	15	
	2	4	2	4	3	3	23	7	20	13	
	3	14	2	4	3	3	22	6	20	12	
	4	17	2	4	3	3	20	4	20	11	
	5	27	2	3	2	3	14	2	20	11	
	6	29	2	3	2	3	14	1	20	9	
32	1	1	3	4	3	1	16	29	11	7	
	2	8	3	4	2	1	16	26	10	7	
	3	12	3	4	2	1	16	22	10	6	
	4	13	3	4	2	1	15	18	9	6	
	5	16	3	3	2	1	15	17	8	6	
	6	21	3	3	2	1	14	13	8	5	
33	1	1	2	3	3	4	13	11	23	16	
	2	13	2	2	3	4	12	10	21	12	
	3	14	2	2	3	4	11	7	21	12	
	4	18	1	2	3	3	11	6	19	9	
	5	20	1	2	3	3	10	4	19	9	
	6	25	1	2	3	3	9	4	17	7	
34	1	4	4	2	2	5	17	27	17	19	
	2	6	3	2	1	4	17	24	14	18	
	3	7	3	2	1	3	17	22	14	17	
	4	14	2	2	1	3	17	22	10	16	
	5	17	1	2	1	2	16	20	8	16	
	6	25	1	2	1	1	16	19	7	14	
35	1	12	4	1	4	3	3	24	16	20	
	2	15	3	1	4	3	3	23	15	17	
	3	21	3	1	3	3	3	21	15	16	
	4	22	3	1	3	2	2	20	13	15	
	5	29	2	1	3	1	1	19	12	11	
	6	30	2	1	2	1	1	19	12	11	
36	1	3	3	5	3	3	11	23	30	19	
	2	7	3	4	3	2	11	21	29	19	
	3	10	3	3	3	2	10	19	29	19	
	4	20	3	3	2	2	8	15	29	19	
	5	22	3	1	1	2	8	13	29	19	
	6	27	3	1	1	2	7	12	29	19	
37	1	4	4	4	3	5	18	26	20	18	
	2	12	4	4	2	4	18	24	17	17	
	3	14	3	4	2	4	15	24	13	16	
	4	18	3	4	1	3	8	21	12	16	
	5	26	2	4	1	3	8	20	9	14	
	6	30	2	4	1	3	4	20	3	14	
38	1	5	4	3	4	4	14	22	27	22	
	2	6	3	3	3	4	12	22	22	21	
	3	14	2	3	3	4	10	22	18	22	
	4	15	2	3	3	4	10	22	18	21	
	5	16	2	3	2	4	8	22	15	20	
	6	24	1	3	2	4	5	22	10	20	
39	1	1	4	3	4	2	18	6	13	7	
	2	6	3	2	4	1	18	6	12	7	
	3	7	3	2	3	1	18	6	10	6	
	4	24	2	2	2	1	17	6	9	6	
	5	25	2	2	2	1	17	5	6	5	
	6	30	2	2	1	1	17	5	6	5	
40	1	12	4	5	3	4	25	17	25	23	
	2	13	3	5	3	3	19	13	24	22	
	3	20	3	5	3	3	16	11	22	22	
	4	21	3	5	2	2	14	8	19	21	
	5	24	3	5	2	2	11	6	17	21	
	6	28	3	5	2	1	7	4	16	21	
41	1	12	5	4	4	1	19	30	17	17	
	2	13	4	4	3	1	16	28	16	17	
	3	14	4	4	3	1	13	24	16	17	
	4	15	3	4	3	1	11	22	15	16	
	5	16	3	4	2	1	8	21	14	15	
	6	25	3	4	2	1	6	20	14	15	
42	1	1	3	4	5	2	12	19	23	26	
	2	10	2	3	4	2	9	18	22	26	
	3	11	2	3	4	2	9	18	22	24	
	4	20	2	2	3	2	6	18	22	23	
	5	27	1	2	2	2	4	17	22	23	
	6	28	1	2	2	2	3	17	22	21	
43	1	11	4	2	5	4	24	14	13	10	
	2	16	3	2	5	3	22	13	13	9	
	3	17	3	2	5	3	20	13	11	6	
	4	20	3	2	5	2	18	13	11	4	
	5	22	2	2	5	2	18	13	10	2	
	6	23	2	2	5	2	14	13	9	2	
44	1	1	3	5	2	4	11	19	25	17	
	2	3	3	4	2	3	9	16	25	14	
	3	24	3	3	2	3	9	16	24	12	
	4	26	3	2	2	2	8	12	23	12	
	5	29	3	2	2	1	7	9	22	9	
	6	30	3	1	2	1	6	7	21	8	
45	1	11	4	3	4	2	24	10	17	16	
	2	12	3	3	3	2	24	10	17	14	
	3	20	3	3	3	2	22	10	17	11	
	4	23	3	3	2	2	21	10	16	9	
	5	25	3	3	2	1	21	9	16	9	
	6	30	3	3	1	1	20	9	15	7	
46	1	1	3	3	4	3	21	24	25	17	
	2	2	3	2	4	3	20	23	20	16	
	3	4	3	2	4	3	20	22	16	16	
	4	12	3	2	3	2	17	22	12	14	
	5	15	3	2	3	1	15	20	9	12	
	6	16	3	2	3	1	14	20	9	10	
47	1	1	5	5	2	5	29	19	24	25	
	2	14	4	4	2	4	23	18	20	24	
	3	19	4	3	2	4	19	17	17	23	
	4	21	4	3	2	3	18	16	14	22	
	5	23	3	1	2	3	13	16	10	20	
	6	24	3	1	2	3	9	15	9	19	
48	1	7	4	3	5	3	29	10	25	23	
	2	8	4	2	4	3	25	8	21	22	
	3	12	3	2	4	3	23	8	19	19	
	4	16	3	2	4	2	19	6	13	18	
	5	17	2	2	3	2	18	6	12	15	
	6	29	1	2	3	2	13	5	9	14	
49	1	2	1	4	2	3	14	10	27	23	
	2	5	1	4	2	2	13	10	25	18	
	3	7	1	4	2	2	13	10	21	15	
	4	9	1	4	2	2	12	10	18	13	
	5	18	1	3	2	2	12	10	18	9	
	6	21	1	3	2	2	11	10	14	3	
50	1	5	3	4	2	3	13	12	22	29	
	2	8	2	3	2	2	13	10	22	26	
	3	12	2	3	2	2	13	9	22	24	
	4	13	2	3	2	1	13	9	22	21	
	5	14	2	3	1	1	13	7	22	20	
	6	20	2	3	1	1	13	7	22	15	
51	1	2	2	4	5	3	20	18	15	17	
	2	4	2	4	4	3	17	17	10	16	
	3	13	2	4	3	3	15	17	10	15	
	4	20	2	4	3	2	11	17	8	14	
	5	22	2	4	3	2	9	17	5	13	
	6	28	2	4	2	2	9	17	2	13	
52	1	5	5	5	4	2	25	26	21	8	
	2	6	3	4	4	2	21	22	19	7	
	3	13	3	3	4	2	19	19	14	7	
	4	14	3	3	3	2	13	17	13	6	
	5	20	2	2	3	2	11	14	8	6	
	6	29	1	2	3	2	9	9	5	6	
53	1	3	3	3	4	4	26	12	16	19	
	2	7	3	2	4	4	26	12	16	18	
	3	16	3	2	4	4	23	11	15	17	
	4	18	3	2	4	3	21	10	13	16	
	5	24	2	1	3	3	19	9	13	15	
	6	30	2	1	3	3	16	9	11	15	
54	1	2	4	1	3	3	23	26	15	5	
	2	10	4	1	3	3	23	26	14	5	
	3	11	4	1	3	3	23	26	13	5	
	4	12	3	1	3	3	22	26	12	5	
	5	22	3	1	3	3	22	26	12	4	
	6	27	3	1	3	3	21	26	11	5	
55	1	2	2	4	3	4	19	4	18	21	
	2	4	2	4	3	3	16	4	18	19	
	3	8	2	4	3	2	14	4	16	16	
	4	20	2	4	3	2	10	4	15	16	
	5	26	2	4	2	2	8	4	13	14	
	6	29	2	4	2	1	6	4	12	12	
56	1	2	3	1	5	5	23	20	27	26	
	2	16	3	1	4	5	20	20	24	22	
	3	21	3	1	4	5	17	19	24	19	
	4	23	3	1	4	5	15	19	22	17	
	5	26	3	1	4	5	12	18	21	12	
	6	27	3	1	4	5	10	18	18	11	
57	1	3	5	2	4	2	23	7	18	25	
	2	6	4	1	4	2	21	5	14	19	
	3	7	4	1	4	2	18	4	13	16	
	4	13	4	1	4	2	17	4	9	10	
	5	23	3	1	4	2	14	3	6	7	
	6	24	3	1	4	2	12	2	5	4	
58	1	6	2	3	4	4	28	17	19	22	
	2	11	2	3	4	4	26	14	17	21	
	3	18	2	3	4	3	24	11	12	19	
	4	23	1	2	4	3	23	8	11	15	
	5	26	1	2	3	1	23	5	10	14	
	6	29	1	2	3	1	21	4	5	13	
59	1	6	4	4	1	4	12	5	24	11	
	2	19	3	4	1	4	10	4	21	10	
	3	21	3	4	1	4	8	4	21	8	
	4	22	2	4	1	4	7	4	18	7	
	5	25	1	4	1	4	4	3	16	6	
	6	28	1	4	1	4	3	2	15	5	
60	1	12	3	1	5	3	13	22	26	4	
	2	16	2	1	4	3	13	17	24	3	
	3	18	2	1	3	3	12	12	15	3	
	4	23	2	1	3	2	12	10	12	3	
	5	24	1	1	3	2	10	4	9	3	
	6	25	1	1	2	2	10	2	2	3	
61	1	1	4	3	5	4	20	24	8	9	
	2	6	4	2	3	3	19	23	8	8	
	3	11	4	2	3	3	19	21	8	7	
	4	19	4	2	3	3	19	19	7	5	
	5	24	4	2	1	2	18	17	7	4	
	6	27	4	2	1	2	17	17	7	2	
62	1	5	4	4	3	1	26	19	6	26	
	2	9	4	3	3	1	24	15	5	25	
	3	16	3	3	3	1	22	14	5	23	
	4	18	2	2	3	1	20	11	5	22	
	5	19	2	2	2	1	14	6	4	21	
	6	23	1	2	2	1	11	3	4	21	
63	1	14	3	4	3	2	20	25	19	25	
	2	15	3	3	3	2	17	25	17	23	
	3	22	3	2	3	2	17	19	16	22	
	4	23	2	2	3	2	15	18	13	21	
	5	26	1	2	3	2	14	15	9	16	
	6	27	1	1	3	2	13	13	8	16	
64	1	2	3	4	3	2	23	22	24	25	
	2	9	3	4	3	1	20	21	22	24	
	3	13	3	4	3	1	19	19	20	20	
	4	19	2	4	3	1	17	16	16	16	
	5	25	2	3	3	1	16	15	10	12	
	6	26	1	3	3	1	15	13	7	10	
65	1	4	2	2	2	2	28	6	10	24	
	2	7	1	2	1	2	24	6	10	21	
	3	8	1	2	1	2	22	5	10	16	
	4	11	1	2	1	2	19	4	9	12	
	5	12	1	2	1	2	15	3	8	6	
	6	23	1	2	1	2	12	2	8	6	
66	1	1	4	5	1	5	9	27	25	6	
	2	2	3	4	1	4	9	27	21	5	
	3	3	2	4	1	3	9	24	18	5	
	4	17	2	4	1	3	8	22	13	5	
	5	20	2	4	1	3	8	20	10	5	
	6	27	1	4	1	2	8	17	6	5	
67	1	2	2	3	3	1	23	13	20	28	
	2	11	2	3	3	1	22	12	19	24	
	3	25	2	3	3	1	22	12	18	23	
	4	26	1	3	3	1	21	11	17	19	
	5	27	1	3	3	1	20	11	16	18	
	6	28	1	3	3	1	20	10	14	16	
68	1	3	3	3	5	4	9	5	3	16	
	2	13	2	3	4	3	9	4	3	14	
	3	17	2	3	4	3	9	4	3	11	
	4	26	2	3	3	2	8	3	3	8	
	5	27	2	3	3	1	7	3	3	8	
	6	30	2	3	2	1	7	3	3	6	
69	1	12	3	2	3	3	28	20	5	18	
	2	14	2	2	3	3	27	19	5	17	
	3	22	2	2	3	3	26	17	3	15	
	4	25	2	2	3	2	26	15	3	14	
	5	27	2	1	3	2	24	11	2	13	
	6	29	2	1	3	2	23	9	1	10	
70	1	5	4	3	3	2	13	20	28	20	
	2	11	3	3	3	2	12	18	27	18	
	3	18	2	3	3	2	11	16	27	16	
	4	19	2	3	2	2	10	9	27	16	
	5	22	2	3	2	2	10	9	26	14	
	6	25	1	3	2	2	9	4	26	12	
71	1	6	5	5	5	5	14	5	27	7	
	2	9	4	3	4	4	14	5	24	5	
	3	10	4	3	4	4	13	5	20	5	
	4	11	4	3	4	3	11	5	19	4	
	5	14	4	1	4	3	11	5	15	2	
	6	20	4	1	4	3	10	5	15	1	
72	1	14	4	3	1	5	17	8	18	17	
	2	17	4	3	1	3	14	8	15	15	
	3	21	3	3	1	3	14	7	12	13	
	4	22	2	3	1	3	10	7	12	13	
	5	25	2	2	1	1	8	6	8	10	
	6	28	1	2	1	1	8	6	6	9	
73	1	1	4	5	3	2	20	13	14	26	
	2	12	3	4	3	1	17	12	13	21	
	3	19	3	4	3	1	15	8	11	20	
	4	24	3	4	3	1	15	6	11	12	
	5	25	2	3	3	1	11	4	9	9	
	6	30	2	3	3	1	10	3	8	7	
74	1	6	3	3	5	3	6	18	19	13	
	2	7	3	3	4	3	5	18	17	11	
	3	14	3	3	4	3	5	15	16	7	
	4	19	3	2	4	2	3	14	12	7	
	5	21	2	2	4	2	2	12	10	4	
	6	22	2	2	4	1	2	11	6	2	
75	1	11	3	3	2	3	24	9	27	10	
	2	12	3	2	1	3	24	7	26	10	
	3	17	3	2	1	3	24	7	26	9	
	4	18	3	2	1	3	24	5	26	9	
	5	22	3	2	1	3	23	4	26	9	
	6	25	3	2	1	3	23	2	26	9	
76	1	8	4	5	4	2	28	16	13	17	
	2	9	4	4	3	2	28	13	13	17	
	3	10	3	3	3	2	26	13	13	14	
	4	11	3	2	2	1	24	8	13	9	
	5	18	2	1	1	1	23	6	13	8	
	6	22	1	1	1	1	20	4	13	4	
77	1	1	2	4	2	5	7	13	20	25	
	2	2	2	3	2	5	7	12	18	25	
	3	3	2	3	2	5	7	12	18	24	
	4	13	2	3	2	5	7	11	18	24	
	5	15	1	3	2	5	7	11	16	23	
	6	16	1	3	2	5	7	11	16	22	
78	1	1	4	5	4	4	4	21	23	25	
	2	2	4	3	3	3	4	20	23	23	
	3	7	4	3	3	3	4	18	19	23	
	4	18	4	2	2	3	4	18	19	22	
	5	22	4	1	2	2	3	15	17	21	
	6	30	4	1	2	2	3	14	15	19	
79	1	5	5	3	4	5	23	29	24	24	
	2	9	4	3	3	4	21	28	23	19	
	3	14	4	2	3	4	18	28	23	18	
	4	17	3	2	2	4	17	26	23	13	
	5	24	3	1	2	4	15	26	23	8	
	6	28	3	1	2	4	12	25	23	6	
80	1	3	4	2	5	5	22	7	17	13	
	2	4	3	2	5	4	22	5	17	10	
	3	8	3	2	5	4	22	4	17	10	
	4	12	3	2	5	3	22	4	17	7	
	5	18	1	2	5	3	22	2	17	5	
	6	26	1	2	5	2	22	2	17	5	
81	1	1	3	4	3	2	10	14	21	21	
	2	2	2	3	3	1	9	13	17	19	
	3	5	2	2	3	1	9	12	16	18	
	4	13	2	2	3	1	9	11	15	13	
	5	18	1	1	2	1	9	10	13	13	
	6	24	1	1	2	1	9	10	12	10	
82	1	9	4	4	3	4	18	19	22	25	
	2	15	4	4	2	4	18	18	22	24	
	3	17	4	3	2	4	18	17	22	23	
	4	21	4	3	2	4	18	17	21	23	
	5	22	4	2	2	3	18	16	21	22	
	6	23	4	1	2	3	18	14	20	21	
83	1	5	1	5	3	4	24	4	24	8	
	2	7	1	3	2	3	21	3	22	6	
	3	10	1	3	2	3	20	3	14	6	
	4	16	1	3	2	3	18	2	14	5	
	5	17	1	2	2	1	16	2	8	3	
	6	19	1	1	2	1	13	2	5	3	
84	1	6	5	4	5	5	20	24	22	25	
	2	7	4	4	4	5	18	24	18	23	
	3	16	3	4	3	5	14	23	15	23	
	4	17	3	4	3	5	13	23	11	21	
	5	18	3	4	2	5	9	22	7	20	
	6	20	2	4	2	5	7	21	6	19	
85	1	1	4	1	1	2	28	27	20	23	
	2	7	3	1	1	1	20	25	17	21	
	3	10	2	1	1	1	17	22	16	20	
	4	15	2	1	1	1	15	20	13	19	
	5	17	2	1	1	1	9	17	10	18	
	6	30	1	1	1	1	7	15	9	18	
86	1	7	2	3	3	1	25	28	12	6	
	2	8	2	3	3	1	24	26	11	4	
	3	9	2	3	3	1	24	26	10	3	
	4	15	2	3	3	1	22	24	10	2	
	5	28	2	3	3	1	22	24	9	2	
	6	30	2	3	3	1	21	23	9	1	
87	1	3	5	4	4	5	21	11	26	17	
	2	4	5	3	3	4	21	9	22	16	
	3	11	5	3	3	4	21	8	19	16	
	4	15	5	3	2	3	21	7	15	15	
	5	19	5	3	2	3	21	7	9	14	
	6	24	5	3	1	3	21	5	5	12	
88	1	4	4	4	3	3	21	24	22	26	
	2	12	4	4	3	2	19	24	17	22	
	3	13	4	4	3	2	13	21	16	15	
	4	16	3	4	2	2	13	20	12	15	
	5	18	2	4	2	2	6	19	9	10	
	6	24	2	4	2	2	3	18	5	5	
89	1	11	3	4	4	4	28	7	30	9	
	2	15	2	3	4	4	19	7	28	7	
	3	17	2	3	4	3	19	7	26	7	
	4	22	1	3	4	3	13	7	26	6	
	5	24	1	3	4	2	9	7	23	5	
	6	26	1	3	4	2	3	7	23	4	
90	1	13	2	4	2	2	10	10	17	17	
	2	14	1	3	2	2	10	8	15	14	
	3	16	1	3	2	2	10	8	14	12	
	4	22	1	3	1	2	9	4	13	12	
	5	26	1	3	1	2	9	4	11	10	
	6	27	1	3	1	2	9	1	8	8	
91	1	1	2	3	5	4	24	28	9	14	
	2	4	1	3	4	4	21	27	9	11	
	3	9	1	3	4	4	19	26	8	9	
	4	13	1	3	4	4	15	25	7	7	
	5	17	1	3	3	4	13	24	7	5	
	6	23	1	3	3	4	12	23	6	4	
92	1	2	4	5	2	5	4	25	24	12	
	2	14	4	4	2	4	3	19	20	12	
	3	15	3	4	2	3	3	17	17	12	
	4	19	3	4	2	3	3	13	16	11	
	5	20	3	4	2	2	1	11	12	11	
	6	27	2	4	2	1	1	6	9	10	
93	1	15	2	3	2	2	21	13	28	22	
	2	17	2	3	2	1	21	13	27	18	
	3	18	2	3	2	1	19	9	27	16	
	4	23	2	3	2	1	15	8	27	12	
	5	24	2	3	2	1	13	6	27	11	
	6	28	2	3	2	1	10	5	27	8	
94	1	1	5	2	3	3	23	18	21	27	
	2	4	4	1	2	2	19	18	18	23	
	3	5	4	1	2	2	16	18	16	20	
	4	13	3	1	2	2	15	17	12	20	
	5	19	3	1	2	2	12	17	7	17	
	6	25	2	1	2	2	7	17	5	15	
95	1	8	5	2	4	3	26	15	21	27	
	2	20	4	2	4	3	23	14	18	23	
	3	24	3	2	4	3	22	13	17	22	
	4	25	3	2	4	3	18	13	15	21	
	5	26	2	2	3	3	17	13	12	18	
	6	27	1	2	3	3	13	12	11	18	
96	1	5	2	3	5	2	23	7	3	19	
	2	10	2	3	4	2	20	7	3	17	
	3	11	2	3	4	2	16	7	3	17	
	4	12	2	3	3	2	11	7	3	16	
	5	18	2	2	3	2	7	7	3	14	
	6	25	2	2	2	2	3	7	3	14	
97	1	10	2	3	2	4	22	28	17	19	
	2	11	2	3	2	3	17	26	17	17	
	3	15	2	3	2	3	14	25	17	15	
	4	16	2	3	2	2	12	24	16	15	
	5	27	1	3	2	2	8	24	16	12	
	6	30	1	3	2	1	3	23	16	11	
98	1	3	5	4	2	1	29	22	25	30	
	2	8	4	3	2	1	26	20	24	26	
	3	9	3	3	2	1	25	18	23	25	
	4	10	2	2	2	1	24	17	21	21	
	5	13	1	2	1	1	21	17	20	20	
	6	28	1	1	1	1	20	15	19	17	
99	1	5	5	2	3	2	29	20	22	25	
	2	10	4	2	3	1	21	18	18	25	
	3	11	4	2	3	1	21	16	14	23	
	4	12	4	2	3	1	15	12	10	21	
	5	17	4	2	2	1	13	10	8	18	
	6	23	4	2	2	1	7	10	5	16	
100	1	1	4	4	4	3	22	18	23	22	
	2	8	4	3	3	2	19	18	23	20	
	3	14	4	2	3	2	17	17	21	19	
	4	15	4	2	2	2	13	17	20	16	
	5	23	4	1	2	2	11	16	19	14	
	6	26	4	1	1	2	9	16	17	14	
101	1	1	4	2	4	5	8	23	10	14	
	2	7	4	2	4	4	6	21	8	13	
	3	21	4	2	3	4	5	18	7	13	
	4	23	3	2	3	4	4	16	7	12	
	5	24	2	2	3	3	3	16	5	12	
	6	25	2	2	2	3	3	14	5	11	
102	1	0	0	0	0	0	0	0	0	0	
************************************************************************

 RESOURCE AVAILABILITIES 
	R 1	R 2	R 3	R 4	N 1	N 2	N 3	N 4
	73	75	70	74	1499	1388	1517	1478

************************************************************************
